pure_adt/tip2015_weird_nat_add3_rot.smt2
(set-logic HORN)
(declare-datatypes ((Nat_261 0)) (((zero_41 ) (succ_41 (p_121 Nat_261)))))
(declare-fun diseqNat_261 (Nat_261 Nat_261) Bool)
(declare-fun p_122 (Nat_261 Nat_261) Bool)
(declare-fun iszero_41 (Nat_261) Bool)
(declare-fun issucc_41 (Nat_261) Bool)
(assert (forall ((x_21974 Nat_261))
	(p_122 x_21974 (succ_41 x_21974))))
(assert (iszero_41 zero_41))
(assert (forall ((x_21976 Nat_261))
	(issucc_41 (succ_41 x_21976))))
(assert (forall ((x_21977 Nat_261))
	(diseqNat_261 zero_41 (succ_41 x_21977))))
(assert (forall ((x_21978 Nat_261))
	(diseqNat_261 (succ_41 x_21978) zero_41)))
(assert (forall ((x_21979 Nat_261) (x_21980 Nat_261))
	(=> (diseqNat_261 x_21979 x_21980)
	    (diseqNat_261 (succ_41 x_21979) (succ_41 x_21980)))))
(declare-fun plus_37 (Nat_261 Nat_261 Nat_261) Bool)
(assert (forall ((x_21953 Nat_261) (z_826 Nat_261) (y_826 Nat_261))
	(=> (plus_37 x_21953 z_826 y_826)
	    (plus_37 (succ_41 x_21953) (succ_41 z_826) y_826))))
(assert (forall ((x_21954 Nat_261))
	(plus_37 x_21954 zero_41 x_21954)))
(declare-fun add_155 (Nat_261 Nat_261 Nat_261 Nat_261) Bool)
(assert (forall ((x_21955 Nat_261) (x_21956 Nat_261) (x_21945 Nat_261) (y_827 Nat_261) (z_827 Nat_261))
	(=>	(and (add_155 x_21956 x_21945 y_827 z_827)
			(plus_37 x_21955 (succ_41 zero_41) x_21956))
		(add_155 x_21955 (succ_41 x_21945) y_827 z_827))))
(assert (forall ((x_21958 Nat_261) (x_21959 Nat_261) (x_21946 Nat_261) (z_827 Nat_261))
	(=>	(and (add_155 x_21959 zero_41 x_21946 z_827)
			(plus_37 x_21958 (succ_41 zero_41) x_21959))
		(add_155 x_21958 zero_41 (succ_41 x_21946) z_827))))
(assert (forall ((x_21961 Nat_261))
	(add_155 x_21961 zero_41 zero_41 x_21961)))
(assert (forall ((x_21962 Nat_261) (x_21963 Nat_261) (x_21947 Nat_261) (y_828 Nat_261) (z_828 Nat_261))
	(=>	(and true
			(diseqNat_261 x_21962 x_21963)
			(add_155 x_21962 x_21947 y_828 z_828)
			(add_155 x_21963 y_828 x_21947 z_828))
		false)))
(assert (forall ((x_21964 Nat_261) (x_21965 Nat_261) (x_21966 Nat_261) (x_21967 Nat_261) (x_21948 Nat_261) (y_829 Nat_261) (z_829 Nat_261))
	(=>	(and true
			(diseqNat_261 x_21965 x_21967)
			(plus_37 x_21964 y_829 z_829)
			(plus_37 x_21965 x_21948 x_21964)
			(plus_37 x_21966 x_21948 y_829)
			(plus_37 x_21967 x_21966 z_829))
		false)))
(assert (forall ((x_21968 Nat_261) (x_21969 Nat_261) (x_21949 Nat_261) (y_830 Nat_261))
	(=>	(and true
			(diseqNat_261 x_21968 x_21969)
			(plus_37 x_21968 x_21949 y_830)
			(plus_37 x_21969 y_830 x_21949))
		false)))
(assert (forall ((x_21970 Nat_261) (x_21950 Nat_261))
	(=>	(and true
			(diseqNat_261 x_21970 x_21950)
			(plus_37 x_21970 x_21950 zero_41))
		false)))
(assert (forall ((x_21971 Nat_261) (x_21951 Nat_261))
	(=>	(and true
			(diseqNat_261 x_21971 x_21951)
			(plus_37 x_21971 zero_41 x_21951))
		false)))
(check-sat)
